20 10
8 53 28 31 30 82 25 139 5 15
81 93 19 193 25 101 8 209 53 88
96 4 55 26 27 15 100 73 14 43
25 4 60 14 66 93 24 18 32 65
100 100 28 11 142 57 100 63 6 41
13 19 35 222 105 6 3 6 11 93
61 35 32 14 1 126 26 70 13 14
46 14 45 2 95 18 10 35 17 20
84 68 9 68 70 56 42 45 6 22
10 5 104 14 113 65 16 28 89 86
44 11 108 26 34 106 110 41 11 4
87 86 55 7 240 161 23 29 59 92
66 109 18 35 13 1 127 38 3 1
33 69 8 25 128 6 147 75 41 96
13 90 339 74 4 9 45 12 49 111
16 95 9 56 13 123 44 4 21 38
58 9 8 4 115 47 35 30 155 27
115 2 59 137 45 1 1 76 14 97
56 29 200 51 4 59 20 12 66 11
15 38 29 53 21 6 87 34 32 42
